LatticeConstant 1.0 Ang
%block LatticeVectors
 4.60000000 0.00000000 0.00000000
 -2.30000000 3.98371686 0.00000000
 0.00000000 0.00000000 40.00000000
%endblock LatticeVectors

NumberOfAtoms 2
AtomicCoordinatesFormat Ang
%block AtomicCoordinatesAndAtomicSpecies
 0.00000000 0.00000000 0.00000000 1 # 1: Bi
 2.30000000 1.32790562 1.62000000 1 # 2: Bi
%endblock AtomicCoordinatesAndAtomicSpecies

NumberOfSpecies 1
%block ChemicalSpeciesLabel
 1 83 Bi
%endblock ChemicalSpeciesLabel
